#===============================================================================
# DISK PACKING (Data)
#===============================================================================

data;

param N := 10; # Number of disks
